SECTION Graph
Nodes 422
Edges 808
E 1 264 8
E 1 274 1
E 2 13 2
E 2 237 15
E 2 264 1
E 2 274 8
E 3 4 3
E 3 245 15
E 3 264 5
E 4 5 5
E 4 247 15
E 5 6 1
E 5 260 15
E 6 263 15
E 7 8 9
E 7 397 238
E 8 345 327
E 8 396 231
E 9 10 5
E 9 12 8
E 9 261 1
E 10 255 8
E 10 273 1
E 11 12 1
E 11 18 2
E 11 212 15
E 11 261 8
E 12 216 15
E 12 255 5
E 13 232 15
E 13 255 1
E 13 273 8
E 14 17 8
E 14 256 1
E 15 16 1
E 15 191 15
E 16 17 5
E 16 197 15
E 17 18 1
E 17 203 15
E 18 207 15
E 18 256 8
E 19 392 23
E 19 395 2
E 20 23 15
E 20 395 7
E 21 23 7
E 21 387 16
E 21 394 2
E 21 395 15
E 22 23 2
E 22 393 11
E 22 394 7
E 24 26 7
E 24 379 16
E 24 386 2
E 24 388 3
E 25 26 2
E 25 29 10
E 25 386 7
E 26 391 3
E 27 29 7
E 27 370 16
E 27 380 2
E 27 386 10
E 28 29 2
E 28 377 12
E 28 380 7
E 30 32 7
E 30 358 16
E 30 369 1
E 30 371 1
E 31 80 1
E 31 367 7
E 32 80 1
E 32 375 1
E 33 267 9
E 33 276 1
E 34 81 2
E 34 246 6
E 34 251 3
E 34 262 1
E 35 81 1
E 35 250 6
E 35 266 1
E 35 267 1
E 36 38 9
E 36 263 1
E 36 272 5
E 37 82 1
E 37 236 5
E 37 241 1
E 37 260 9
E 38 82 1
E 38 244 1
E 38 254 5
E 39 366 15
E 39 376 2
E 39 381 7
E 39 382 11
E 40 376 7
E 40 379 3
E 40 381 2
E 40 388 16
E 41 43 7
E 41 319 7
E 41 322 2
E 41 347 30
E 42 43 2
E 42 320 10
E 42 322 7
E 43 356 30
E 44 46 7
E 44 306 7
E 44 309 2
E 44 314 6
E 45 46 2
E 45 49 16
E 45 309 7
E 46 318 6
E 47 288 7
E 47 290 2
E 47 300 6
E 47 309 16
E 48 49 2
E 48 271 42
E 48 299 1
E 49 300 1
E 50 308 7
E 50 310 3
E 50 316 7
E 50 317 10
E 51 52 3
E 51 289 13
E 51 293 6
E 51 301 1
E 52 286 22
E 52 305 1
E 52 327 43
E 53 233 8
E 53 242 2
E 53 259 7
E 53 270 14
E 54 55 2
E 54 222 1
E 54 223 1
E 54 227 1
E 55 226 1
E 55 233 1
E 55 252 14
E 56 218 8
E 56 230 3
E 56 239 2
E 56 246 7
E 57 58 3
E 57 169 13
E 57 193 5
E 57 205 1
E 58 173 13
E 58 213 1
E 58 217 2
E 59 83 1
E 59 331 1
E 59 332 1
E 59 341 7
E 60 84 2
E 60 336 1
E 60 338 1
E 60 346 7
E 61 92 2
E 62 92 8
E 62 121 14
E 63 65 9
E 63 326 2
E 63 339 15
E 63 352 26
E 64 65 2
E 64 321 1
E 64 326 9
E 65 342 26
E 66 68 9
E 66 324 1
E 66 325 2
E 66 330 13
E 67 85 1
E 67 286 43
E 67 323 9
E 68 85 1
E 68 321 2
E 69 70 2
E 69 154 14
E 70 160 14
E 70 204 5
E 71 72 1
E 71 192 14
E 71 208 7
E 72 198 14
E 72 249 13
E 72 289 54
E 73 138 3
E 73 144 2
E 73 145 2
E 74 75 2
E 74 152 3
E 74 157 1
E 74 172 7
E 75 162 1
E 75 165 2
E 75 176 7
E 76 89 1
E 76 93 7
E 77 79 7
E 77 91 1
E 77 138 29
E 78 93 1
E 78 94 1
E 79 88 1
E 79 99 1
E 79 149 29
E 80 369 7
E 81 248 6
E 81 265 1
E 82 243 1
E 82 263 9
E 83 84 1
E 83 333 1
E 83 343 7
E 84 335 1
E 84 344 7
E 85 324 9
E 86 87 1
E 86 89 7
E 86 93 1
E 86 96 1
E 87 88 2
E 87 90 7
E 87 97 1
E 88 91 7
E 88 98 1
E 89 90 1
E 90 91 2
E 92 111 15
E 93 95 1
E 94 95 1
E 94 100 7
E 95 96 1
E 95 101 7
E 96 97 1
E 96 103 7
E 97 98 2
E 97 105 7
E 98 99 1
E 98 110 7
E 99 107 5
E 99 112 7
E 100 101 1
E 100 102 1
E 101 103 1
E 101 104 1
E 102 104 1
E 102 117 7
E 103 105 1
E 103 106 1
E 104 106 1
E 104 118 7
E 105 108 1
E 105 110 2
E 106 108 1
E 106 119 7
E 107 109 1
E 107 150 23
E 108 113 2
E 108 120 7
E 109 114 2
E 109 153 23
E 110 112 1
E 110 113 1
E 111 117 3
E 111 123 8
E 112 115 1
E 112 166 29
E 113 115 1
E 113 122 7
E 114 116 1
E 114 158 23
E 115 124 7
E 115 169 29
E 116 152 20
E 116 161 23
E 117 118 1
E 117 125 6
E 118 119 1
E 118 126 6
E 119 120 1
E 119 128 6
E 120 122 2
E 120 131 6
E 121 123 1
E 121 164 22
E 122 124 1
E 122 136 6
E 123 130 3
E 123 167 22
E 124 139 6
E 125 126 1
E 125 127 1
E 126 128 1
E 126 129 1
E 127 129 1
E 127 130 1
E 128 131 1
E 128 132 1
E 129 132 1
E 129 133 1
E 130 133 1
E 131 134 1
E 131 136 2
E 132 134 1
E 132 135 1
E 133 135 1
E 134 137 1
E 134 140 2
E 135 137 1
E 135 146 8
E 136 139 1
E 136 140 1
E 137 142 2
E 137 151 8
E 138 149 7
E 139 141 1
E 139 184 22
E 140 141 1
E 140 142 1
E 141 143 1
E 141 188 22
E 142 143 1
E 142 156 8
E 143 150 5
E 143 159 8
E 144 147 2
E 144 148 2
E 145 148 2
E 145 157 5
E 146 151 1
E 146 175 13
E 147 154 2
E 147 155 2
E 148 155 2
E 148 162 5
E 149 152 1
E 149 157 3
E 150 153 1
E 150 202 22
E 151 156 2
E 151 177 13
E 152 166 7
E 153 158 2
E 153 206 22
E 154 160 2
E 155 160 2
E 155 163 5
E 156 159 1
E 156 185 13
E 157 162 2
E 158 161 1
E 158 211 22
E 159 189 13
E 159 210 22
E 160 168 5
E 161 170 5
E 161 215 22
E 162 163 2
E 163 165 1
E 163 168 2
E 164 167 1
E 164 191 9
E 165 171 2
E 165 182 7
E 166 169 1
E 166 172 3
E 167 178 5
E 167 197 9
E 168 171 1
E 168 204 14
E 169 173 3
E 170 174 3
E 170 228 22
E 171 192 7
E 171 208 14
E 172 173 1
E 172 176 2
E 173 180 2
E 174 195 5
E 174 236 22
E 175 177 1
E 175 178 1
E 176 179 1
E 176 180 1
E 177 181 1
E 177 185 2
E 178 181 1
E 178 203 9
E 179 182 1
E 179 183 1
E 180 183 1
E 180 217 13
E 181 190 2
E 181 207 9
E 182 186 1
E 182 192 2
E 183 186 1
E 183 220 13
E 184 187 1
E 184 188 1
E 185 189 1
E 185 190 1
E 186 198 2
E 186 222 13
E 187 193 1
E 187 194 1
E 188 194 1
E 188 195 1
E 189 196 1
E 189 241 22
E 190 196 1
E 190 212 9
E 191 197 1
E 192 198 1
E 193 199 1
E 194 199 1
E 194 200 1
E 195 200 1
E 195 210 8
E 196 202 5
E 196 216 9
E 197 203 5
E 198 226 13
E 199 201 1
E 199 205 5
E 200 201 1
E 200 214 8
E 201 209 5
E 201 219 8
E 202 206 1
E 202 229 9
E 203 207 1
E 204 208 1
E 204 283 54
E 205 209 1
E 205 213 3
E 206 211 2
E 206 232 9
E 207 212 2
E 209 218 3
E 209 230 8
E 210 214 1
E 210 231 7
E 211 215 1
E 211 237 9
E 212 216 1
E 213 218 1
E 213 221 2
E 214 219 1
E 214 234 7
E 215 228 5
E 215 238 9
E 216 229 5
E 217 220 1
E 217 221 1
E 218 224 2
E 219 230 5
E 219 235 7
E 220 222 1
E 220 223 1
E 221 223 1
E 221 224 1
E 222 226 2
E 223 225 1
E 224 225 1
E 224 239 8
E 225 227 1
E 225 240 8
E 226 249 14
E 227 233 2
E 227 242 8
E 228 236 3
E 228 245 9
E 229 232 1
E 229 255 15
E 230 251 13
E 231 234 1
E 231 241 6
E 232 237 2
E 233 257 14
E 234 235 1
E 234 243 6
E 235 244 6
E 235 246 8
E 236 247 9
E 237 238 1
E 238 245 5
E 238 264 15
E 239 240 1
E 239 248 7
E 240 242 1
E 240 250 7
E 241 243 1
E 242 253 7
E 243 244 1
E 244 251 5
E 245 247 3
E 246 248 2
E 247 260 5
E 248 250 1
E 249 252 1
E 249 277 28
E 250 253 1
E 251 254 1
E 252 257 1
E 252 278 28
E 253 259 2
E 253 266 6
E 254 262 3
E 254 272 9
E 256 261 2
E 257 258 1
E 257 280 28
E 258 270 7
E 258 282 28
E 259 269 6
E 259 290 42
E 260 263 1
E 262 265 2
E 262 275 9
E 265 267 1
E 265 276 9
E 266 268 1
E 266 269 2
E 267 268 1
E 268 271 2
E 269 271 1
E 269 299 42
E 270 287 28
E 272 275 3
E 273 274 2
E 275 276 2
E 277 278 1
E 277 279 2
E 278 280 1
E 278 281 2
E 279 281 1
E 279 291 16
E 280 282 1
E 280 284 2
E 281 284 1
E 281 292 16
E 282 285 2
E 282 287 7
E 283 286 3
E 283 289 9
E 284 285 1
E 284 294 16
E 285 288 7
E 285 296 16
E 287 288 2
E 287 290 7
E 288 303 16
E 289 323 46
E 290 299 6
E 291 292 1
E 291 293 2
E 292 294 1
E 292 295 2
E 293 295 1
E 294 296 1
E 294 297 2
E 295 297 1
E 295 301 6
E 296 298 2
E 296 303 7
E 297 298 1
E 297 302 6
E 298 304 6
E 298 306 7
E 299 300 2
E 301 302 1
E 301 305 3
E 302 304 1
E 302 307 3
E 303 306 2
E 303 309 7
E 304 308 3
E 304 310 7
E 305 307 1
E 306 310 6
E 307 308 1
E 307 311 10
E 308 312 10
E 310 314 7
E 311 312 1
E 311 313 2
E 312 315 2
E 312 317 7
E 313 315 1
E 313 329 30
E 314 316 3
E 314 318 7
E 315 319 7
E 315 332 30
E 316 320 7
E 316 322 10
E 317 319 2
E 317 322 7
E 318 320 3
E 319 341 31
E 321 325 9
E 323 324 1
E 323 327 13
E 324 328 13
E 325 326 1
E 325 334 13
E 326 337 15
E 327 328 1
E 327 331 2
E 328 330 1
E 328 333 2
E 329 331 1
E 329 332 1
E 330 334 2
E 330 335 2
E 331 333 1
E 332 347 14
E 333 335 1
E 334 336 2
E 335 336 2
E 336 337 1
E 337 338 1
E 337 339 2
E 338 340 2
E 339 340 1
E 339 349 9
E 340 363 23
E 341 343 1
E 341 348 7
E 342 345 2
E 342 352 9
E 343 344 1
E 343 350 7
E 344 346 2
E 344 351 7
E 345 355 9
E 346 354 7
E 347 348 1
E 347 356 7
E 348 350 1
E 348 357 7
E 349 353 2
E 349 363 15
E 350 351 1
E 350 358 7
E 351 354 2
E 351 359 7
E 352 355 2
E 352 364 15
E 353 361 10
E 353 365 15
E 354 360 7
E 354 363 12
E 355 366 15
E 356 357 1
E 356 367 16
E 357 358 1
E 357 369 16
E 358 359 1
E 359 360 2
E 359 371 16
E 360 368 12
E 360 372 16
E 361 362 2
E 362 364 3
E 363 365 2
E 363 368 7
E 364 366 2
E 364 376 15
E 365 370 7
E 365 373 10
E 366 383 28
E 367 369 1
E 368 370 2
E 368 380 16
E 370 378 10
E 371 372 2
E 371 375 7
E 372 377 7
E 372 380 12
E 373 374 2
E 373 378 7
E 374 376 3
E 374 379 7
E 375 377 2
E 378 379 2
E 378 386 16
E 381 387 13
E 381 389 16
E 382 384 2
E 382 394 23
E 383 385 2
E 383 390 15
E 384 387 7
E 384 390 15
E 385 392 15
E 385 396 90
E 388 389 2
E 388 391 7
E 389 393 7
E 389 394 11
E 390 392 2
E 390 395 23
E 391 393 2
E 396 397 2
E 1 398 100000
E 2 398 100000
E 3 398 100000
E 4 398 100000
E 5 398 100000
E 6 398 100000
E 7 399 100000
E 8 399 100000
E 9 400 100000
E 10 400 100000
E 11 400 100000
E 12 400 100000
E 13 400 100000
E 14 401 100000
E 15 401 100000
E 16 401 100000
E 17 401 100000
E 18 401 100000
E 19 402 100000
E 20 402 100000
E 21 403 100000
E 22 403 100000
E 23 403 100000
E 24 404 100000
E 25 404 100000
E 26 404 100000
E 27 405 100000
E 28 405 100000
E 29 405 100000
E 30 406 100000
E 31 406 100000
E 32 406 100000
E 33 407 100000
E 34 407 100000
E 35 407 100000
E 36 408 100000
E 37 408 100000
E 38 408 100000
E 39 409 100000
E 40 409 100000
E 41 410 100000
E 42 410 100000
E 43 410 100000
E 44 411 100000
E 45 411 100000
E 46 411 100000
E 47 412 100000
E 48 412 100000
E 49 412 100000
E 50 413 100000
E 51 413 100000
E 52 413 100000
E 53 414 100000
E 54 414 100000
E 55 414 100000
E 56 415 100000
E 57 415 100000
E 58 415 100000
E 59 416 100000
E 60 416 100000
E 61 417 100000
E 62 417 100000
E 63 418 100000
E 64 418 100000
E 65 418 100000
E 66 419 100000
E 67 419 100000
E 68 419 100000
E 69 420 100000
E 70 420 100000
E 71 420 100000
E 72 420 100000
E 73 421 100000
E 74 421 100000
E 75 421 100000
E 76 422 100000
E 77 422 100000
E 78 422 100000
E 79 422 100000
E 80 406 100000
E 81 407 100000
E 82 408 100000
E 83 416 100000
E 84 416 100000
E 85 419 100000
E 86 422 100000
E 87 422 100000
E 88 422 100000
END

SECTION Terminals
Terminals 25
T 398
T 399
T 400
T 401
T 402
T 403
T 404
T 405
T 406
T 407
T 408
T 409
T 410
T 411
T 412
T 413
T 414
T 415
T 416
T 417
T 418
T 419
T 420
T 421
T 422
END

SECTION Tree Decomposition
c We do not guarantee that this tree decomposition has minimum width.
s td 351 21 422
b 1 399 7 8
b 2 61 417 92
b 3 417 92 62
b 4 361 362 353
b 5 7 397 8
b 6 397 396 8
b 7 92 62 111
b 8 402 19 20
b 9 396 8 385
b 10 362 353 364
b 11 409 39 40
b 12 8 385 345
b 13 62 111 121
b 14 403 23 21 22
b 15 404 26 24 25
b 16 405 29 27 28
b 17 411 46 44 45
b 18 410 43 41 42
b 19 418 65 63 64
b 20 421 73 74 75
b 21 23 20 21 22
b 22 412 49 48 47
b 23 414 54 53 55
b 24 26 391 24 25
b 25 415 58 56 57
b 26 111 121 123 117
b 27 29 25 27 28
b 28 413 52 50 51
b 29 121 123 117 164
b 30 31 406 80 367
b 31 46 318 44 45
b 32 43 41 356 42
b 33 14 401 17 256
b 34 15 16 191 401
b 35 6 5 263 398
b 36 65 342 63 64
b 37 69 420 70 154
b 38 19 395 20 392
b 39 385 383 392 345
b 40 384 387 382 390
b 41 346 344 354 60
b 42 349 353 339 363
b 43 355 352 345 366
b 44 90 91 87 89
b 45 373 374 378 365
b 46 94 78 95 100
b 47 375 377 32 371
b 48 393 22 389 391
b 49 102 100 104 117
b 50 107 109 99 150
b 51 114 116 109 158
b 52 124 122 115 139
b 53 125 127 126 117
b 54 33 407 276 267
b 55 130 133 127 123
b 56 138 73 149 77
b 57 144 147 148 73
b 58 145 148 157 73
b 59 146 175 151 135
b 60 170 174 228 161
b 61 179 176 183 182
b 62 184 187 188 139
b 63 193 187 57 199
b 64 208 171 71 204
b 65 231 210 234 241
b 66 1 274 264 398
b 67 258 270 282 257
b 68 261 9 256 11
b 69 268 266 271 267
b 70 272 275 36 254
b 71 273 274 10 13
b 72 277 279 278 249
b 73 283 286 289 204
b 74 291 293 292 279
b 75 76 93 89 422
b 76 300 49 299 47
b 77 305 52 307 301
b 78 311 313 312 307
b 79 320 318 316 42
b 80 321 68 64 325
b 81 329 313 331 332
b 82 334 336 330 325
b 83 338 340 337 60
b 84 340 339 363 337 60
b 85 406 80 367 30 32
b 86 80 367 369 30 32
b 87 408 38 37 82 36
b 88 416 83 60 84 59
b 89 367 369 30 32 356
b 90 369 30 357 32 356
b 91 395 20 392 21 390
b 92 20 392 21 390 22
b 93 16 191 401 17 197
b 94 49 48 299 47 45
b 95 191 401 17 197 164
b 96 48 299 47 271 45
b 97 419 85 66 68 67
b 98 85 66 68 324 67
b 99 5 263 260 4 398
b 100 383 392 390 345 366
b 101 342 352 345 63 64
b 102 353 364 365 339 363
b 103 374 378 379 376 365
b 104 91 87 89 88 77
b 105 420 70 71 154 72
b 106 377 32 371 28 372
b 107 116 109 158 152 161
b 108 147 148 73 154 155
b 109 133 127 129 123 135
b 110 175 177 151 178 135
b 111 174 228 236 195 161
b 112 270 287 282 53 257
b 113 275 262 276 36 254
b 114 293 295 292 279 51
b 115 78 93 422 95 100
b 116 392 21 390 22 345 366
b 117 401 17 197 18 256 164
b 118 17 197 203 18 256 164
b 119 197 203 18 256 164 167
b 120 127 129 123 126 117 135
b 121 129 123 132 126 117 135
b 122 93 89 86 422 95 100
b 123 387 382 381 21 390
b 124 3 4 245 264 398
b 125 286 67 52 289 204
b 126 30 357 32 371 358 356
b 127 357 32 371 358 348 356
b 128 148 157 73 162 154 155
b 129 382 394 381 21 390 39
b 130 9 400 12 10 256 11
b 131 400 12 10 13 256 11
b 132 352 345 366 364 63 64
b 133 66 68 324 67 330 325
b 134 68 324 67 330 64 325
b 135 274 2 10 13 264 398
b 136 2 10 13 237 264 398
b 137 299 47 271 269 45 290
b 138 70 160 71 154 72 204
b 139 394 381 21 390 22 389 39
b 140 381 21 390 22 389 39 40
b 141 21 390 22 389 39 40 345 366
b 142 22 389 39 40 391 345 366
b 143 389 39 388 40 391 345 366
b 144 39 388 40 391 376 345 366
b 145 388 40 391 24 376 345 366
b 146 40 391 24 379 376 345 366
b 147 391 24 379 376 25 345 366
b 148 24 379 386 376 25 345 366
b 149 96 86 95 97 103
b 150 323 324 67 327 289
b 151 315 313 312 319 332
b 152 313 312 319 331 332 307
b 153 380 27 368 28 372
b 154 108 113 105 120 106
b 155 110 113 105 98 112
b 156 101 95 103 100 104
b 157 308 312 307 50 304
b 158 298 304 306 297 296
b 159 317 312 319 50 322
b 160 119 128 120 106 118
b 161 131 128 120 134 136
b 162 214 210 234 200 219
b 163 370 378 27 365 368
b 164 303 306 296 288 309
b 165 259 269 253 290 53
b 166 137 151 142 134 135
b 167 255 12 10 13 229
b 168 140 142 134 136 141
b 169 143 142 141 150 159
b 170 351 344 350 354 359
b 171 252 278 249 55 257
b 172 251 230 34 244 254
b 173 156 151 185 142 159
b 174 153 109 158 150 206
b 175 248 81 239 250 246
b 176 247 260 4 236 245
b 177 360 368 354 359 372
b 178 163 168 165 162 155
b 179 281 292 279 284 278
b 180 243 234 82 244 241
b 181 166 172 152 112 169
b 182 326 63 337 64 325
b 183 240 242 225 239 250
b 184 173 180 172 58 169
b 185 181 177 190 178 207
b 186 186 183 182 198 222
b 187 189 185 196 159 241
b 188 328 324 327 330 333
b 189 192 171 71 182 198
b 190 194 187 188 199 200
b 191 187 188 57 199 200 139
b 192 201 209 199 200 219
b 193 202 229 196 150 206
b 194 205 213 209 57 199
b 195 211 158 215 206 237
b 196 227 233 54 242 225
b 197 212 190 207 11 216
b 198 217 180 220 58 221
b 199 224 218 221 225 239
b 200 223 54 220 221 225
b 201 226 249 55 198 222
b 202 232 13 229 206 237
b 203 235 234 219 244 246
b 204 238 245 215 237 264
b 205 280 282 284 278 257
b 206 310 314 50 304 306
b 207 265 262 276 81 267
b 208 347 41 348 356 332
b 209 341 343 59 348 319
b 210 294 292 297 284 296
b 211 302 307 304 297 301
b 212 285 282 284 296 288
b 213 335 336 84 330 333
b 214 318 316 44 314 42 45
b 215 407 276 81 34 35 267
b 216 263 260 4 82 36 398
b 217 38 37 82 36 244 254
b 218 295 292 279 51 297 301
b 219 228 236 245 195 161 215
b 220 378 379 386 376 27 365 368
b 221 32 371 358 28 372 348 356
b 222 371 358 28 359 372 348 356
b 223 358 350 28 359 372 348 356
b 224 316 44 314 42 50 322 45
b 225 12 10 13 229 256 11 216
b 226 233 54 53 55 257 242 225
b 227 266 271 269 253 35 267
b 228 83 60 84 343 59 333
b 229 122 115 113 120 136 139
b 230 287 282 288 290 53 257
b 231 87 89 86 422 88 97 77
b 232 89 86 422 95 88 97 100 77
b 233 86 422 95 88 97 103 100 77
b 234 422 95 88 97 103 100 77 79
b 235 95 88 97 103 100 104 77 79
b 236 88 97 103 100 104 77 79 98
b 237 97 103 100 104 105 77 79 98
b 238 103 100 104 105 106 77 79 98
b 239 100 104 105 106 117 77 79 98
b 240 104 105 106 117 118 77 79 98
b 241 123 132 126 117 135 164 167
b 242 115 113 120 112 136 139 169
b 243 262 276 81 34 267 36 254
b 244 276 81 34 35 267 36 254
b 245 157 73 74 149 162 154 155
b 246 177 151 185 190 178 207 135
b 247 188 57 199 195 200 139 141
b 248 203 18 178 207 256 164 167
b 249 18 178 207 256 11 164 167
b 250 160 71 168 154 155 72 204
b 251 44 314 42 50 322 306 45 309
b 252 314 42 50 322 304 306 45 309
b 253 176 183 180 182 75 172
b 254 336 337 60 84 330 325 333
b 255 109 158 99 152 161 150 206
b 256 158 99 152 161 215 150 206 237
b 257 41 348 356 319 332 42 322
b 258 171 71 168 165 182 198 204
b 259 71 168 165 154 155 182 198 72 204
b 260 168 165 162 154 155 182 198 72 204
b 261 165 162 154 155 182 75 198 72 204
b 262 47 271 269 288 45 290 309
b 263 73 74 149 162 154 155 75 77
b 264 132 126 128 117 134 135 164 167
b 265 126 128 117 118 134 135 164 167
b 266 260 4 236 245 37 82 36 398
b 267 4 236 245 37 82 36 264 398
b 268 379 386 376 25 27 345 366 365 368
b 269 376 25 27 345 366 364 365 368
b 270 25 27 345 366 364 365 368 28
b 271 27 345 366 364 365 368 28 372
b 272 345 366 364 365 63 368 28 372 64
b 273 364 365 63 339 363 368 28 372 64
b 274 63 339 363 368 28 372 337 64 325
b 275 339 363 368 28 372 337 60 64 325
b 276 363 368 28 354 372 337 60 64 325
b 277 368 28 354 359 372 337 60 64 325
b 278 344 350 354 359 60 84 343
b 279 218 213 221 225 56 239 209
b 280 312 319 331 332 307 50 322 304
b 281 292 279 51 297 301 284 296 278
b 282 279 51 297 301 284 296 278 249
b 283 282 284 296 278 288 290 53 257
b 284 324 67 327 330 64 325 333 289
b 285 67 327 330 64 325 333 52 289 204
b 286 327 330 64 325 333 331 52 289 204
b 287 210 234 195 200 219 159 241
b 288 183 180 182 75 172 198 220 222
b 289 74 149 162 154 155 75 172 152 77
b 290 149 162 154 155 75 172 152 77 79
b 291 113 105 120 106 98 112 136 139 169
b 292 213 58 221 225 56 239 209 57 199
b 293 10 13 229 256 11 216 237 264 398
b 294 13 229 256 11 216 206 237 264 398
b 295 229 256 11 196 216 150 206 237 264 398
b 296 271 269 253 288 45 290 309 35 267
b 297 269 253 288 45 290 309 53 35 267
b 298 350 28 354 359 372 60 84 343 348 356
b 299 28 354 359 372 337 60 84 343 348 356 64 325
b 300 337 60 84 343 348 356 330 64 325 333
b 301 60 84 343 59 348 356 330 64 325 333
b 302 343 59 348 356 330 64 325 333 319
b 303 59 348 356 330 64 325 333 319 331 332
b 304 348 356 330 64 325 333 319 331 332 42 322
b 305 230 34 56 209 219 244 254
b 306 234 82 195 200 219 244 246 159 241
b 307 151 185 190 178 207 142 134 135 159
b 308 185 190 178 207 142 196 134 135 159 241
b 309 190 178 207 142 11 196 216 134 135 159 241
b 310 253 288 45 290 309 53 242 35 250 267
b 311 330 64 325 333 319 331 332 52 289 42 322 204
b 312 319 331 332 52 307 289 42 50 322 304 204
b 313 52 307 289 42 50 322 304 51 301 204
b 314 307 289 42 50 322 304 51 297 301 204
b 315 289 42 50 322 304 51 297 301 72 204
b 316 81 34 35 239 250 267 36 246 254
b 317 54 53 55 257 242 220 222 221 225
b 318 236 245 37 82 36 195 161 215 264 398
b 319 245 37 82 36 195 161 215 237 264 398
b 320 128 120 106 117 118 134 135 136 164 167
b 321 162 154 155 182 75 172 198 72 204 152 77 79
b 322 42 50 322 304 306 51 297 301 45 309 72 204
b 323 304 306 51 297 301 296 45 309 72 204
b 324 306 51 297 301 296 288 45 309 72 204
b 325 51 297 301 284 296 278 249 288 45 309 72 204
b 326 284 296 278 249 288 45 290 309 53 257 72 204
b 327 278 249 288 45 290 309 53 55 257 72 204
b 328 249 288 45 290 309 53 55 257 198 72 204 222
b 329 180 182 75 172 198 220 222 58 221 169
b 330 178 207 142 256 11 196 216 134 135 159 164 167 241
b 331 99 152 161 215 79 98 112 150 206 237
b 332 37 82 36 195 244 254 161 215 237 241 264 398
b 333 34 35 56 239 250 267 209 36 219 244 246 254
b 334 105 120 106 117 118 77 79 98 112 136 139 169
b 335 142 256 11 196 216 134 135 136 141 150 159 164 167 241
b 336 288 45 290 309 53 55 257 242 198 72 204 222 35 250 267
b 337 53 55 257 242 198 72 204 220 222 221 225 35 250 267
b 338 242 198 72 204 220 222 221 225 35 239 250 267
b 339 182 75 172 198 72 204 220 222 58 221 152 77 79 169
b 340 172 198 72 204 220 222 58 221 152 77 79 112 169
b 341 120 106 117 118 77 79 98 112 134 135 136 139 164 167 169
b 342 82 36 195 200 219 244 246 254 161 215 159 237 241 264 398
b 343 198 72 204 220 222 58 221 225 35 239 250 267 152 77 79 112 169
b 344 58 221 225 35 56 239 250 267 209 57 199 152 77 79 112 169
b 345 256 11 196 216 134 135 136 141 150 159 164 167 206 237 241 264 398
b 346 35 56 239 250 267 209 57 199 36 219 244 246 254 152 77 79 112 169
b 347 209 57 199 36 200 219 244 246 254 152 77 79 112 169
b 348 57 199 36 195 200 219 244 246 254 152 77 79 112 139 141 169
b 349 36 195 200 219 244 246 254 152 161 215 77 79 112 139 141 159 169 237 241 264 398
b 350 152 161 215 77 79 98 112 139 141 150 159 169 206 237 241 264 398
b 351 77 79 98 112 134 135 136 139 141 150 159 164 167 169 206 237 241 264 398
1 5
5 6
6 9
9 12
12 39
39 100
100 116
116 141
141 140
141 142
140 139
142 143
143 144
144 145
145 146
146 147
147 148
148 268
268 269
269 270
270 271
271 272
272 273
273 274
274 275
275 276
276 277
277 299
299 298
299 300
300 301
301 302
302 303
303 304
304 311
311 286
311 312
286 285
312 313
313 314
314 315
315 322
322 323
323 324
324 325
325 326
326 327
327 328
328 336
336 337
337 338
338 343
343 340
343 344
344 346
346 347
347 348
348 349
349 342
349 350
350 351
351 345
345 335
340 339
346 333
351 341
342 332
335 330
341 334
330 309
336 310
345 295
339 329
339 321
341 320
350 331
332 319
309 308
319 318
337 317
344 292
342 306
333 316
334 291
310 297
295 294
321 290
321 261
308 307
297 296
294 293
290 289
261 260
260 259
322 252
325 282
326 283
334 240
329 288
320 265
331 256
318 267
289 263
252 251
282 281
240 239
265 264
267 266
239 238
312 280
238 237
237 236
236 235
285 284
235 234
234 233
233 232
268 220
348 247
333 305
330 249
298 223
298 278
300 254
317 226
292 279
306 287
316 244
291 242
307 246
296 262
293 225
259 258
259 250
304 257
256 255
263 245
251 224
264 241
232 231
249 248
223 222
222 221
244 243
241 121
221 127
248 119
121 120
127 126
119 118
118 117
272 132
332 217
301 228
318 219
296 227
293 136
136 135
283 230
288 253
281 218
266 216
139 129
280 152
284 134
134 133
232 122
247 191
244 215
242 229
262 137
225 131
131 130
250 138
245 128
224 214
219 111
126 90
221 106
231 104
132 101
117 95
230 112
243 113
218 114
216 99
129 123
152 151
243 207
133 98
122 115
314 211
191 190
137 96
217 87
138 105
228 88
128 108
120 109
90 89
323 158
95 93
98 97
96 94
324 164
89 86
86 85
327 171
271 153
328 201
116 92
92 91
338 183
273 102
340 181
274 182
347 192
275 84
302 209
335 168
335 169
277 177
309 197
295 193
329 184
329 198
320 160
320 161
319 204
308 187
317 200
292 194
306 180
306 203
316 175
291 154
291 155
297 165
294 202
307 166
307 173
260 178
252 206
283 205
283 212
288 186
256 195
267 124
281 210
281 179
266 176
280 157
280 159
235 156
284 150
284 188
233 149
220 103
220 163
305 172
285 125
278 170
254 213
226 196
279 199
287 162
246 110
246 185
225 167
258 189
257 208
255 107
255 174
253 61
152 78
152 81
134 80
122 75
191 63
191 62
215 54
229 52
130 68
128 58
214 31
214 79
111 60
106 47
104 44
101 36
112 67
113 70
114 74
99 35
123 40
93 34
115 46
105 37
108 57
109 55
117 33
94 22
92 21
91 38
102 42
94 76
84 83
21 14
241 29
29 26
270 27
135 66
103 45
85 30
125 73
227 69
110 59
107 51
135 71
31 17
36 19
27 16
344 25
132 43
142 48
120 53
317 23
282 72
263 20
263 56
239 49
147 24
24 15
278 41
254 82
287 65
313 28
313 77
258 64
257 32
32 18
255 50
141 11
38 8
102 10
10 4
26 13
13 7
7 3
3 2
END

EOF
